data/CVRPLIB/Vrp-Set-XML100/instances/XML100_2111_14.vrp
NAME : XML100_2111_14
COMMENT : Generated by Queiroga, Sadykov, Uchoa, and Vidal (2021)
TYPE : CVRP
DIMENSION : 101
EDGE_WEIGHT_TYPE : EUC_2D
CAPACITY : 4
NODE_COORD_SECTION
1    500  500 
2    792  937 
3    971  298 
4    232  398 
5    359  626 
6    915  706 
7    312  109 
8    519  779 
9    421  766 
10   321  163 
11   600  722 
12   997  313 
13   818  531 
14   574  371 
15   149  583 
16   230  873 
17   630  58  
18   751  807 
19   361  292 
20   656  947 
21   507  372 
22   259  150 
23   594  795 
24   80   22  
25   245  16  
26   385  405 
27   214  249 
28   737  726 
29   954  733 
30   562  177 
31   223  408 
32   645  511 
33   862  21  
34   265  585 
35   578  991 
36   131  169 
37   708  505 
38   613  156 
39   644  43  
40   641  835 
41   330  743 
42   499  676 
43   409  204 
44   807  836 
45   743  467 
46   299  110 
47   348  736 
48   598  770 
49   443  635 
50   158  40  
51   866  406 
52   244  681 
53   505  495 
54   774  364 
55   269  945 
56   46   188 
57   954  888 
58   621  572 
59   304  288 
60   432  322 
61   362  55  
62   638  557 
63   179  946 
64   413  904 
65   722  592 
66   263  518 
67   65   197 
68   403  555 
69   313  604 
70   662  218 
71   574  843 
72   654  835 
73   42   155 
74   496  466 
75   332  417 
76   987  501 
77   422  10  
78   973  225 
79   99   131 
80   924  592 
81   15   319 
82   479  699 
83   954  702 
84   462  457 
85   716  457 
86   242  72  
87   960  803 
88   924  473 
89   676  644 
90   636  886 
91   983  387 
92   967  810 
93   62   204 
94   630  717 
95   329  622 
96   679  327 
97   33   463 
98   376  225 
99   945  155 
100  126  807 
101  530  796 
DEMAND_SECTION
1    0   
2    1   
3    1   
4    1   
5    1   
6    1   
7    1   
8    1   
9    1   
10   1   
11   1   
12   1   
13   1   
14   1   
15   1   
16   1   
17   1   
18   1   
19   1   
20   1   
21   1   
22   1   
23   1   
24   1   
25   1   
26   1   
27   1   
28   1   
29   1   
30   1   
31   1   
32   1   
33   1   
34   1   
35   1   
36   1   
37   1   
38   1   
39   1   
40   1   
41   1   
42   1   
43   1   
44   1   
45   1   
46   1   
47   1   
48   1   
49   1   
50   1   
51   1   
52   1   
53   1   
54   1   
55   1   
56   1   
57   1   
58   1   
59   1   
60   1   
61   1   
62   1   
63   1   
64   1   
65   1   
66   1   
67   1   
68   1   
69   1   
70   1   
71   1   
72   1   
73   1   
74   1   
75   1   
76   1   
77   1   
78   1   
79   1   
80   1   
81   1   
82   1   
83   1   
84   1   
85   1   
86   1   
87   1   
88   1   
89   1   
90   1   
91   1   
92   1   
93   1   
94   1   
95   1   
96   1   
97   1   
98   1   
99   1   
100  1   
101  1   
DEPOT_SECTION
1
-1
EOF
