data/CVRPLIB/Vrp-Set-XML100/solutions/XML100_2111_14.sol
Route #1: 17 43 27 88
Route #2: 4 94 68 67
Route #3: 31 36 61 57
Route #4: 50 90 11 2
Route #5: 35 78 23 49
Route #6: 95 53 44 84
Route #7: 25 74 3 30
Route #8: 99 62 54 15
Route #9: 7 100 47 10
Route #10: 18 97 42 59
Route #11: 76 60 24 85
Route #12: 86 91 56 1
Route #13: 21 45 6 9
Route #14: 93 71 39 22
Route #15: 89 19 34 70
Route #16: 73 13 20 83
Route #17: 92 55 72 66
Route #18: 87 75 79 12
Route #19: 29 16 38 37
Route #20: 65 14 51 33
Route #21: 69 32 98 77
Route #22: 52 41 81 48
Route #23: 46 40 63 8
Route #24: 5 28 82 64
Route #25: 58 26 80 96
Cost 22887
